TCS_Benchmarks/redos_fix/snort1_output_distinct_2850_2849_32_0.smt2
(set-logic QF_S)
(declare-const x String)
(assert (str.in.re x (re.inter  (re.++ (re.* (re.comp  (str.to.re "\u{7d}")) ) (re.* (re.union (re.range "\u{09}" "\u{0d}") (re.range "\u{20}" "\u{20}") (re.range "\u{85}" "\u{85}") (re.range "\u{a0}" "\u{a0}")) ))  (re.++ (re.* (re.comp  (str.to.re "\u{7d}")) ) (re.++  (re.++  (re.union  (str.to.re "\u{6f}")  (str.to.re "\u{4f}")) (re.++  (re.union  (str.to.re "\u{76}")  (str.to.re "\u{56}")) (re.++  (re.union  (str.to.re "\u{65}")  (str.to.re "\u{45}")) (re.++  (re.union  (str.to.re "\u{72}")  (str.to.re "\u{52}")) (re.++  (re.union  (str.to.re "\u{66}")  (str.to.re "\u{46}")) (re.++  (re.union  (str.to.re "\u{6c}")  (str.to.re "\u{4c}")) (re.++  (re.union  (str.to.re "\u{6f}")  (str.to.re "\u{4f}")) (re.++  (re.union  (str.to.re "\u{77}")  (str.to.re "\u{57}")) (re.++ (re.* (re.comp  (str.to.re "\u{7d}")) ) (re.++  (re.union  (str.to.re "\u{6d}")  (str.to.re "\u{4d}")) (re.++  (re.union  (str.to.re "\u{61}")  (str.to.re "\u{41}")) (re.++  (re.union  (str.to.re "\u{72}")  (str.to.re "\u{52}")) (re.++  (re.union  (str.to.re "\u{67}")  (str.to.re "\u{47}")) (re.++  (re.union  (str.to.re "\u{69}")  (str.to.re "\u{49}")) (re.++  (re.union  (str.to.re "\u{6e}")  (str.to.re "\u{4e}")) (re.++ (re.* (re.union (re.range "\u{09}" "\u{0d}") (re.range "\u{20}" "\u{20}") (re.range "\u{85}" "\u{85}") (re.range "\u{a0}" "\u{a0}")) )  (str.to.re "\u{3a}"))))))))))))))))) (re.* (re.union (re.range "\u{09}" "\u{0d}") (re.range "\u{20}" "\u{20}") (re.range "\u{85}" "\u{85}") (re.range "\u{a0}" "\u{a0}")) ))) )))
(check-sat)
(get-model)