TCS_Benchmarks/redos_fix/snort1_output_distinct_2850_2849_32_0.txt
([^}]*)(\s*)
([^}]*)([oO][vV][eE][rR][fF][lL][oO][wW][^}]*[mM][aA][rR][gG][iI][nN]\s*:)(\s*)